nApps = 70
nRes = 6
nActs = 152
nNetworks = 4

assignmentToResources = [2,2,1,2,2,2,2,2,1,1,1,1,1,1,1,2,2,2,2,1,1,2,2,2,2,2,1,2,2,2,2,2,1,2,2,1,2,2,2,2,1,2,1,2,2,2,1,2,1,2,4,4,4,4,4,4,3,3,3,3,3,3,3,3,3,3,3,3,3,3,4,4,4,4,3,3,3,4,4,4,4,4,3,4,4,4,3,3,4,4,5,3,6,4,5,3,6,4,5,3,6,3,6,4,5,4,5,3,6,4,5,4,5,5,5,5,5,5,5,6,6,6,6,6,6,6,6,6,6,6,6,6,6,5,5,5,5,6,6,6,5,5,5,5,5,6,5,5,5,6,6,5];

processingTimes = [160,128,112,72,120,88,72,120,136,128,136,120,112,128,104,136,160,136,128,80,72,48,48,112,112,80,120,112,128,136,56,112,120,120,120,128,160,80,104,152,144,152,128,88,72,128,96,152,160,64,3,3,3,500,8,8,5,300,300,500,3,4,3,4,500,4,8,5,3,150,500,4,3,500,4,4,5,3,3,4,4,3,500,500,3,8,3,3,3,500,500,500,500,500,500,500,500,500,500,500,500,4,4,4,4,3,3,3,3,4,4,3,3,3,3,3,500,8,8,5,300,300,500,3,4,3,4,500,4,8,5,3,150,500,4,3,500,4,4,5,3,3,4,4,3,500,500,3,8,3,3,3];

periods = [100000,20000,20000,100000,10000,100000,20000,1000,2000,100000,20000,10000,100000,1000,20000,10000,100000,20000,10000,10000,20000,20000,20000,10000,100000,20000,20000,50000,20000,100000,100000,10000,10000,100000,20000,10000,10000,20000,10000,20000,10000,20000,100000,100000,100000,100000,10000,10000,100000,20000,20000,20000,100000,100000,20000,1000,2000,2000,2000,100000,100000,100000,20000,20000,10000,10000,10000,100000,100000,1000,100000,20000,10000,10000,10000,10000,20000,20000,100000,10000,10000,10000,10000,100000,100000,100000,10000,100000,20000,20000,20000,20000,20000,20000,20000,20000,20000,20000,20000,20000,20000,10000,10000,10000,10000,100000,100000,10000,10000,10000,10000,10000,10000,20000,20000,100000,100000,20000,1000,2000,2000,2000,100000,100000,100000,20000,20000,10000,10000,10000,100000,100000,1000,100000,20000,10000,10000,10000,10000,20000,20000,100000,10000,10000,10000,10000,100000,100000,100000,10000,100000,20000];

assignmentToClusters = [1,2,3,4,5,6,3,7,8,9,3,10,11,12,3,5,13,3,14,15,3,16,17,15,18,3,3,19,20,6,6,21,15,22,23,5,24,3,25,26,25,27,6,6,28,29,5,30,31,3,32,33,34,35,36,37,38,39,40,41,42,43,44,45,46,47,48,49,50,51,52,53,54,55,56,57,58,59,60,61,62,63,64,65,66,67,68,69,70,3,3,3,3,3,3,3,3,3,3,3,3,5,5,5,5,6,6,15,15,15,15,25,25,32,33,34,35,36,37,38,39,40,41,42,43,44,45,46,47,48,49,50,51,52,53,54,55,56,57,58,59,60,61,62,63,64,65,66,67,68,69,70];

precedenceAdjList = [[],[],[90],[],[102],[43],[100],[],[],[],[2],[],[],[],[98],[4],[],[],[],[],[94],[],[],[108],[],[96],[2],[],[],[],[29],[],[110],[],[],[],[],[92],[],[],[112],[],[106],[30],[],[],[104],[],[],[17],[],[],[],[],[],[],[],[],[],[],[],[],[],[],[],[],[],[],[],[],[],[],[],[],[],[],[],[],[],[],[],[],[],[],[],[],[],[],[],[49],[89],[26],[91],[37],[93],[20],[95],[25],[97],[14],[99],[35],[101],[15],[103],[30],[105],[19],[107],[23],[109],[38],[111],[50],[51],[52],[53],[54],[55],[56],[57],[58],[59],[60],[61],[62],[63],[64],[65],[66],[67],[68],[69],[70],[71],[72],[73],[74],[75],[76],[77],[78],[79],[80],[81],[82],[83],[84],[85],[86],[87],[88]];